COOK = {C1, C2, C3, C4, C5};
DISH = {D1, D2, D3, D4, D5, D6, D7, D8, D9, D10, D11, D12, D13, D14, D15, D16, D17, D18, D19, D20};
no_tasks = 100;
steps = [1..5, 6..10, 11..15, 16..20, 21..25, 26..30, 31..35, 36..40, 41..45, 46..50, 51..55, 56..60, 61..65, 66..70, 71..75, 76..80, 81..85, 86..90, 91..95, 96..100];
time = array2d(1..100,COOK,[15, 4, 0, 0, 0, 15, 0, 18, 0, 0, 0, 4, 0, 0, 0, 0, 0, 0, 18, 0, 7, 7, 8, 5, 2, 3, 0, 0, 0, 13, 7, 7, 8, 5, 2, 15, 4, 0, 0, 0, 8, 5, 0, 0, 1, 3, 0, 2, 0, 13, 9, 18, 3, 19, 1, 0, 0, 0, 18, 0, 0, 0, 9, 11, 0, 0, 4, 0, 0, 0, 0, 0, 14, 19, 12, 15, 4, 0, 0, 0, 0, 17, 10, 10, 8, 5, 2, 13, 0, 18, 2, 16, 9, 10, 15, 6, 0, 15, 0, 0, 3, 0, 2, 0, 13, 15, 0, 18, 0, 0, 9, 18, 3, 19, 1, 0, 0, 14, 19, 12, 0, 0, 0, 5, 0, 7, 7, 8, 5, 2, 15, 0, 18, 0, 0, 15, 0, 0, 0, 7, 17, 7, 0, 0, 0, 15, 4, 0, 0, 0, 0, 0, 0, 5, 0, 15, 0, 0, 0, 7, 15, 4, 0, 0, 0, 3, 0, 2, 0, 13, 0, 17, 15, 6, 7, 0, 17, 15, 6, 7, 2, 0, 18, 15, 0, 0, 14, 19, 14, 15, 0, 4, 0, 0, 0, 17, 7, 0, 0, 0, 9, 18, 3, 19, 1, 0, 17, 15, 6, 7, 8, 5, 0, 0, 1, 0, 14, 19, 14, 15, 17, 0, 0, 0, 15, 15, 0, 0, 0, 7, 0, 17, 10, 10, 8, 6, 0, 15, 0, 0, 0, 0, 0, 5, 0, 7, 10, 16, 10, 17, 0, 0, 0, 18, 0, 8, 5, 0, 0, 1, 7, 7, 8, 5, 2, 15, 0, 0, 0, 7, 17, 0, 0, 0, 15, 0, 0, 14, 19, 12, 0, 17, 10, 10, 8, 6, 0, 15, 0, 0, 7, 7, 8, 5, 2, 7, 10, 16, 10, 17, 17, 0, 0, 0, 15, 0, 0, 0, 18, 0, 0, 17, 12, 5, 19, 2, 0, 18, 15, 0, 8, 5, 0, 0, 1, 0, 0, 5, 0, 1, 2, 0, 18, 15, 0, 0, 17, 10, 10, 8, 15, 0, 18, 0, 0, 7, 7, 8, 5, 2, 7, 7, 8, 5, 2, 0, 0, 5, 0, 1, 0, 0, 14, 19, 12, 7, 10, 16, 10, 17, 17, 0, 0, 0, 15, 2, 16, 9, 10, 15, 0, 0, 9, 11, 0, 0, 4, 0, 0, 0, 15, 0, 0, 0, 7, 0, 0, 0, 5, 0, 7, 7, 8, 5, 2, 0, 14, 19, 14, 15, 2, 0, 18, 15, 0, 6, 0, 15, 0, 0, 9, 18, 3, 19, 1, 0, 4, 0, 0, 0, 8, 5, 0, 0, 1, 0, 0, 5, 0, 1, 15, 0, 18, 0, 0, 15, 0, 0, 0, 7, 3, 0, 2, 0, 13, 0, 17, 15, 6, 7, 5, 2, 13, 0, 18, 0, 0, 0, 18, 0, 3, 0, 0, 0, 13, 0, 0, 0, 5, 0, 15, 4, 0, 0, 0, 0, 0, 0, 18, 0, 15, 0, 0, 0, 7, 2, 16, 9, 10, 15]);
